Number of variables: 89
Number of constraints: 174
Constraints density: 0.1465194369107581
Maximum factor: 917000.0
Minimum factor: 0.001
21.789073944091797ms cplex
18.549442291259766ms glpk
17.859697341918945ms lp_solve
19.212961196899414ms clp
-896644.821863046 Value of objective function [cplex]
-896644.8219 Value of objective function [glpk]
-896645.0 Value of objective function [lp_solve]
-896644.82 Value of objective function [clp]
